NAME: random-56-16277
TYPE: TSP
COMMENT: size=56 seed=16277
DIMENSION: 114
EDGE_WEIGHT_TYPE: EUC_2D
NODE_COORD_SECTION
+0 539 746
-0 539 746
+1 473 83
-1 733 503
+2 439 582
-2 306 967
+3 609 20
-3 509 544
+4 751 58
-4 400 235
+5 566 647
-5 251 321
+6 989 769
-6 511 985
+7 195 584
-7 270 120
+8 487 475
-8 663 67
+9 24 409
-9 626 355
+10 272 320
-10 847 558
+11 557 964
-11 349 407
+12 352 248
-12 305 309
+13 226 810
-13 27 360
+14 755 975
-14 857 836
+15 919 318
-15 332 424
+16 704 401
-16 825 44
+17 534 41
-17 496 693
+18 925 123
-18 171 805
+19 999 167
-19 160 521
+20 177 158
-20 307 142
+21 805 206
-21 84 779
+22 531 985
-22 711 129
+23 574 276
-23 517 592
+24 903 390
-24 525 521
+25 762 917
-25 189 762
+26 155 478
-26 209 883
+27 185 297
-27 843 174
+28 543 269
-28 905 411
+29 134 609
-29 585 190
+30 813 846
-30 482 495
+31 676 345
-31 199 275
+32 894 778
-32 195 494
+33 505 774
-33 946 200
+34 817 777
-34 488 916
+35 995 690
-35 782 872
+36 397 339
-36 4 565
+37 154 365
-37 453 125
+38 318 966
-38 946 197
+39 939 320
-39 339 965
+40 73 324
-40 809 14
+41 659 666
-41 466 571
+42 348 252
-42 257 633
+43 51 346
-43 856 368
+44 357 290
-44 262 402
+45 862 895
-45 295 195
+46 337 204
-46 925 427
+47 634 576
-47 398 91
+48 111 826
-48 731 537
+49 839 594
-49 33 423
+50 130 152
-50 237 547
+51 852 32
-51 198 810
+52 412 836
-52 792 770
+53 711 104
-53 971 191
+54 465 929
-54 213 555
+55 408 821
-55 588 485
+56 495 777
-56 149 340
PRECEDENCE_SECTION
+0 -0
+1 -1
+2 -2
+3 -3
+4 -4
+5 -5
+6 -6
+7 -7
+8 -8
+9 -9
+10 -10
+11 -11
+12 -12
+13 -13
+14 -14
+15 -15
+16 -16
+17 -17
+18 -18
+19 -19
+20 -20
+21 -21
+22 -22
+23 -23
+24 -24
+25 -25
+26 -26
+27 -27
+28 -28
+29 -29
+30 -30
+31 -31
+32 -32
+33 -33
+34 -34
+35 -35
+36 -36
+37 -37
+38 -38
+39 -39
+40 -40
+41 -41
+42 -42
+43 -43
+44 -44
+45 -45
+46 -46
+47 -47
+48 -48
+49 -49
+50 -50
+51 -51
+52 -52
+53 -53
+54 -54
+55 -55
+56 -56
EOF
